22
35
0
26
47
36
23
30
27
26
0
0
39
0
26
84
23
40
36
32
34
20
0
0
0
34
22
21
23
0
0
36
35
40
29
0
25
29
35
0
0
24
35
25
35
39
21
39
22
43
33
22
25
27
30
38
25
0
32
21
50
0
29
41
31
30
21
0
21
24
27
43
0
34
30
21
28
0
57
0
40
46
24
29
23
23
29
36
23
35
21
0
31
26
24
45
0
24
0
0
